10	5 
570	4	1	72	0	87	4	95	2	66	3	60
271	4	4	5	3	35	0	48	2	39	1	54
358	2	1	46	3	20	2	21	0	97	4	55
292	2	0	59	3	19	4	46	1	34	2	37
259	2	4	23	2	73	3	25	1	24	0	28
358	2	3	28	0	45	4	5	1	78	2	83
303	2	0	53	3	71	1	37	4	29	2	12
337	2	4	12	2	87	3	33	1	55	0	38
340	1	2	49	3	83	1	40	0	48	4	7
333	1	2	65	3	17	0	90	4	27	1	23
